9063702043640981237509,1,1,2,011,5,1,2,03,9,1,2,07,8,1,2,06,14,1,2,010,11,1,2,014,3,1,2,02,13,1,2,01,9,1,2,04,3,1,2,014,10,1,2,06,2,1,2,02,2,1,2,09,9,1,2,07,12,1,2,02,2,1,2,013,9,1,2,011,14,1,2,05,3,1,2,06,4,1,2,010,8,1,2,09,8,1,2,012,4,1,2,02,4,1,2,09,2,1,2,06,9,1,2,01,4,1,2,013,3,1,2,03,14,1,2,013,14,1,2,05,7,1,2,09,7,1,2,06,12,1,2,015,6,1,2,010,6,1,2,08,2,1,2,02,13,1,2,06,9,1,2,014,12,1,2,015,4,1,2,014,4,1,2,05,14,1,2,05,12,1,2,011,8,1,2,010,13,1,2,03,14,1,2,06,3,1,2,014,15,1,2,013,14,1,2,014,13,1,2,0